assets/logs/0_14x14_clingo/0_14x14_clingo.solution.log

---------------------------------------------------------
|138| 89| 79|  0|134| 36|  0|  0| 42| 32| 46| 52|  0| 76|
---------------------------------------------------------
|152| 83|136| 87| 77|126| 40| 34|112| 54|116| 78|  0| 50|
---------------------------------------------------------
| 91|140|150| 81| 38|132| 75|124|118| 44| 30| 48| 74| 68|
---------------------------------------------------------
|148|154| 85|  0| 73| 90|128|110| 56|114|120| 70| 80|  0|
---------------------------------------------------------
|142| 93|146| 92|130| 13| 71| 88|122| 84| 67| 28| 66| 72|
---------------------------------------------------------
|156| 94|  1| 15|109|103|108| 19| 69| 58| 64| 82| 45|  0|
---------------------------------------------------------
| 95|144| 99|105|  3| 17| 11|  0| 86| 65| 43| 60| 26|157|
---------------------------------------------------------
| 96|158|164|111|101|107| 21|106|  0| 62|153|159| 41| 47|
---------------------------------------------------------
|162| 97| 98|  5|  0|113|102|  9| 63| 20| 39|  4|155| 24|
---------------------------------------------------------
|176|166|160|123|100|  7|  0| 23|104|151|161| 22| 49|  2|
---------------------------------------------------------
|182|125|178|133|115| 25|147| 61| 18| 37|  6| 53|163|181|
---------------------------------------------------------
|168|174|121|139|145|135| 12| 27|149| 55|177| 35|169| 51|
---------------------------------------------------------
|127|180|170|117|131|141| 59| 16| 31|  8|  0|173|179|165|
---------------------------------------------------------
|172|119|129|143|137| 14| 29| 10| 57|175| 33|167|  0|171|
---------------------------------------------------------

| n = 14 | k = 7 | coverage = 188, 95.91836734693878%
 Time 299.998
 Name 0_14x14_clingo

