assets/logs/0_14x14_clingo/0_14x14_clingo.log
clingo version 5.4.0
Reading from ...ts/logs/0_14x14_clingo/knights_tour.lp ...
Solving...
Answer: 1
occ(1,10,7) occ(1,1,7) occ(1,8,9) occ(1,13,11) occ(1,7,8) occ(1,9,5) occ(1,4,4) occ(2,6,3) occ(3,10,14) coverage(6)
Optimization: -6
Answer: 2
occ(1,10,7) occ(1,1,7) occ(1,8,9) occ(1,13,11) occ(1,7,8) occ(1,9,5) occ(1,4,4) occ(2,6,3) occ(3,10,14) coverage(7) occ(4,7,1) occ(6,9,2)
Optimization: -7
Answer: 3
occ(1,10,7) occ(1,1,7) occ(1,8,9) occ(1,13,11) occ(1,7,8) occ(1,9,5) occ(1,4,4) occ(2,6,3) occ(3,10,14) coverage(124) occ(66,1,2) occ(78,1,6) occ(82,1,4) occ(90,1,12) occ(113,1,10) occ(119,1,5) occ(127,1,3) occ(30,2,9) occ(76,2,4) occ(84,2,6) occ(88,2,10) occ(111,2,8) occ(117,2,7) occ(125,2,1) occ(129,2,5) occ(14,3,12) occ(18,3,14) occ(28,3,7) occ(32,3,11) occ(64,3,3) occ(68,3,1) occ(74,3,2) occ(80,3,5) occ(86,3,8) occ(92,3,13) occ(109,3,6) occ(115,3,9) occ(121,3,4) occ(9,4,11) occ(12,4,10) occ(20,4,12) occ(26,4,9) occ(62,4,1) occ(70,4,3) occ(97,4,7) occ(101,4,5) occ(123,4,2) occ(131,4,6) occ(175,4,8) occ(13,5,8) occ(16,5,13) occ(24,5,11) occ(33,5,2) occ(34,5,12) occ(72,5,1) occ(94,5,14) occ(95,5,9) occ(103,5,3) occ(107,5,5) occ(135,5,7) occ(177,5,6) occ(7,6,12) occ(10,6,11) occ(11,6,10) occ(22,6,13) occ(31,6,4) occ(60,6,2) occ(99,6,6) occ(133,6,5) occ(137,6,9) occ(173,6,7) occ(179,6,8) occ(4,7,5) occ(8,7,9) occ(15,7,7) occ(35,7,1) occ(36,7,11) occ(93,7,10) occ(96,7,13) occ(105,7,4) occ(122,7,2) occ(181,7,6) occ(5,8,13) occ(6,8,7) occ(29,8,3) occ(54,8,5) occ(58,8,1) occ(59,8,2) occ(87,8,14) occ(91,8,12) occ(98,8,11) occ(139,8,10) occ(171,8,6) occ(183,8,8) occ(17,9,6) occ(37,9,2) occ(38,9,10) occ(44,9,9) occ(48,9,11) occ(52,9,7) occ(56,9,3) occ(57,9,4) occ(85,9,12) occ(100,9,13) occ(120,9,1) occ(141,9,8) occ(19,10,4) occ(27,10,2) occ(42,10,11) occ(50,10,9) occ(55,10,6) occ(61,10,1) occ(89,10,13) occ(118,10,3) occ(155,10,10) occ(169,10,5) occ(21,11,2) occ(39,11,1) occ(40,11,9) occ(46,11,10) occ(47,11,5) occ(83,11,13) occ(102,11,14) occ(110,11,6) occ(143,11,7) occ(157,11,12) occ(165,11,8) occ(25,12,1) occ(41,12,3) occ(53,12,5) occ(63,12,2) occ(77,12,11) occ(104,12,12) occ(108,12,8) occ(116,12,4) occ(149,12,7) occ(153,12,9) occ(159,12,14) occ(163,12,10) occ(167,12,6) occ(23,13,3) occ(45,13,4) occ(49,13,6) occ(67,13,5) occ(71,13,9) occ(75,13,13) occ(81,13,14) occ(106,13,10) occ(112,13,7) occ(145,13,8) occ(161,13,12) occ(43,14,2) occ(51,14,4) occ(65,14,3) occ(69,14,7) occ(73,14,11) occ(79,14,12) occ(114,14,5) occ(147,14,6) occ(151,14,8)
Optimization: -124
Answer: 4
occ(1,10,7) occ(1,1,7) occ(1,8,9) occ(1,13,11) occ(1,7,8) occ(1,9,5) occ(1,4,4) occ(2,6,3) occ(3,10,14) coverage(126) occ(66,1,2) occ(78,1,6) occ(82,1,4) occ(90,1,12) occ(113,1,10) occ(119,1,5) occ(127,1,3) occ(30,2,9) occ(76,2,4) occ(84,2,6) occ(88,2,10) occ(111,2,8) occ(117,2,7) occ(125,2,1) occ(129,2,5) occ(14,3,12) occ(18,3,14) occ(28,3,7) occ(32,3,11) occ(64,3,3) occ(68,3,1) occ(74,3,2) occ(80,3,5) occ(86,3,8) occ(92,3,13) occ(109,3,6) occ(115,3,9) occ(121,3,4) occ(9,4,11) occ(12,4,10) occ(20,4,12) occ(26,4,9) occ(62,4,1) occ(70,4,3) occ(97,4,7) occ(101,4,5) occ(123,4,2) occ(131,4,6) occ(175,4,8) occ(13,5,8) occ(16,5,13) occ(24,5,11) occ(33,5,2) occ(34,5,12) occ(72,5,1) occ(94,5,14) occ(95,5,9) occ(103,5,3) occ(107,5,5) occ(135,5,7) occ(177,5,6) occ(7,6,12) occ(10,6,11) occ(11,6,10) occ(22,6,13) occ(31,6,4) occ(60,6,2) occ(99,6,6) occ(133,6,5) occ(137,6,9) occ(173,6,7) occ(179,6,8) occ(4,7,5) occ(8,7,9) occ(15,7,7) occ(35,7,1) occ(36,7,11) occ(93,7,10) occ(96,7,13) occ(105,7,4) occ(122,7,2) occ(181,7,6) occ(5,8,13) occ(6,8,7) occ(29,8,3) occ(54,8,5) occ(58,8,1) occ(59,8,2) occ(87,8,14) occ(91,8,12) occ(98,8,11) occ(124,8,4) occ(139,8,10) occ(171,8,6) occ(183,8,8) occ(17,9,6) occ(37,9,2) occ(38,9,10) occ(44,9,9) occ(48,9,11) occ(52,9,7) occ(56,9,3) occ(57,9,4) occ(85,9,12) occ(100,9,13) occ(120,9,1) occ(141,9,8) occ(19,10,4) occ(27,10,2) occ(42,10,11) occ(50,10,9) occ(55,10,6) occ(61,10,1) occ(89,10,13) occ(118,10,3) occ(155,10,10) occ(169,10,5) occ(21,11,2) occ(39,11,1) occ(40,11,9) occ(46,11,10) occ(47,11,5) occ(83,11,13) occ(102,11,14) occ(110,11,6) occ(143,11,7) occ(157,11,12) occ(165,11,8) occ(25,12,1) occ(41,12,3) occ(53,12,5) occ(63,12,2) occ(77,12,11) occ(104,12,12) occ(108,12,8) occ(116,12,4) occ(149,12,7) occ(153,12,9) occ(159,12,14) occ(163,12,10) occ(167,12,6) occ(23,13,3) occ(45,13,4) occ(49,13,6) occ(67,13,5) occ(71,13,9) occ(75,13,13) occ(81,13,14) occ(106,13,10) occ(112,13,7) occ(145,13,8) occ(161,13,12) occ(43,14,2) occ(51,14,4) occ(65,14,3) occ(69,14,7) occ(73,14,11) occ(79,14,12) occ(114,14,5) occ(147,14,6) occ(151,14,8)
Optimization: -126
Answer: 5
occ(1,10,7) occ(1,1,7) occ(1,8,9) occ(1,13,11) occ(1,7,8) occ(1,9,5) occ(1,4,4) occ(2,6,3) occ(3,10,14) coverage(146) occ(22,1,12) occ(66,1,4) occ(90,1,14) occ(107,1,5) occ(108,1,3) occ(113,1,6) occ(119,1,9) occ(18,2,9) occ(24,2,14) occ(64,2,2) occ(72,2,6) occ(88,2,12) occ(105,2,7) occ(106,2,5) occ(110,2,1) occ(111,2,4) occ(115,2,8) occ(20,3,11) occ(26,3,12) occ(68,3,5) occ(92,3,13) occ(103,3,9) occ(104,3,7) occ(109,3,6) occ(112,3,3) occ(117,3,10) occ(121,3,8) occ(129,3,4) occ(10,4,3) occ(16,4,8) occ(62,4,1) occ(70,4,7) occ(74,4,5) occ(80,4,10) occ(86,4,13) occ(94,4,11) occ(99,4,12) occ(102,4,9) occ(123,4,6) occ(127,4,2) occ(8,5,5) occ(14,5,6) occ(28,5,13) occ(78,5,8) occ(82,5,12) occ(95,5,9) occ(100,5,11) occ(101,5,10) occ(114,5,2) occ(125,5,4) occ(131,5,3) occ(135,5,7) occ(6,6,7) occ(12,6,4) occ(32,6,12) occ(60,6,2) occ(76,6,6) occ(84,6,14) occ(96,6,10) occ(97,6,11) occ(133,6,5) occ(136,6,8) occ(137,6,9) occ(4,7,5) occ(30,7,14) occ(36,7,9) occ(56,7,3) occ(93,7,10) occ(98,7,12) occ(116,7,1) occ(126,7,4) occ(130,7,2) occ(134,7,6) occ(139,7,7) occ(31,8,6) occ(34,8,11) occ(54,8,5) occ(58,8,1) occ(87,8,14) occ(91,8,12) occ(118,8,3) occ(124,8,2) occ(132,8,4) occ(138,8,7) occ(17,9,6) occ(29,9,4) occ(37,9,2) occ(38,9,10) occ(44,9,9) occ(48,9,11) occ(52,9,7) occ(85,9,12) occ(120,9,1) occ(128,9,3) occ(141,9,8) occ(7,10,10) occ(19,10,4) occ(27,10,2) occ(33,10,5) occ(42,10,11) occ(50,10,9) occ(55,10,6) occ(89,10,13) occ(122,10,3) occ(140,10,8) occ(5,11,12) occ(9,11,8) occ(15,11,5) occ(21,11,2) occ(35,11,3) occ(39,11,1) occ(40,11,9) occ(45,11,6) occ(46,11,10) occ(61,11,4) occ(83,11,13) occ(143,11,7) occ(11,12,6) occ(25,12,1) occ(43,12,4) occ(47,12,8) occ(53,12,5) occ(57,12,7) occ(63,12,2) occ(69,12,3) occ(142,12,9) occ(13,13,4) occ(23,13,3) occ(41,13,2) occ(51,13,7) occ(59,13,5) occ(67,13,1) occ(73,13,6) occ(77,13,10) occ(81,13,14) occ(145,13,8) occ(49,14,9) occ(65,14,3) occ(71,14,4) occ(75,14,8) occ(79,14,12) occ(144,14,10) occ(147,14,6)
Optimization: -146
Answer: 6
occ(1,10,7) occ(1,1,7) occ(1,8,9) occ(1,13,11) occ(1,7,8) occ(1,9,5) occ(1,4,4) occ(2,6,3) occ(3,10,14) coverage(151) occ(12,1,5) occ(60,1,3) occ(91,1,1) occ(113,1,2) occ(130,1,12) occ(134,1,14) occ(8,2,2) occ(14,2,7) occ(18,2,9) occ(58,2,1) occ(62,2,5) occ(89,2,3) occ(99,2,6) occ(111,2,4) occ(122,2,11) occ(128,2,10) occ(136,2,12) occ(140,2,14) occ(10,3,4) occ(20,3,11) occ(38,3,10) occ(56,3,3) occ(87,3,5) occ(93,3,2) occ(101,3,8) occ(109,3,6) occ(115,3,1) occ(124,3,9) occ(132,3,13) occ(135,3,7) occ(142,3,12) occ(6,4,3) occ(16,4,8) occ(36,4,12) occ(52,4,2) occ(64,4,6) occ(85,4,7) occ(97,4,5) occ(120,4,10) occ(126,4,11) occ(137,4,9) occ(138,4,13) occ(4,5,1) occ(22,5,12) occ(34,5,14) occ(40,5,9) occ(54,5,4) occ(61,5,8) occ(95,5,3) occ(103,5,7) occ(107,5,5) occ(117,5,2) occ(133,5,6) occ(139,5,11) occ(144,5,13) occ(150,5,10) occ(24,6,14) occ(42,6,7) occ(50,6,1) occ(59,6,6) occ(66,6,5) occ(83,6,8) occ(104,6,10) occ(108,6,12) occ(118,6,9) occ(119,6,4) occ(141,6,13) occ(146,6,11) occ(32,7,13) occ(46,7,4) occ(63,7,7) occ(70,7,2) occ(81,7,10) occ(102,7,12) occ(105,7,6) occ(110,7,14) occ(131,7,5) occ(143,7,11) occ(148,7,9) occ(26,8,13) occ(44,8,6) occ(48,8,2) occ(57,8,5) occ(68,8,4) occ(79,8,12) occ(100,8,14) occ(106,8,11) occ(116,8,10) occ(121,8,3) occ(129,8,7) occ(19,9,9) occ(30,9,14) occ(31,9,3) occ(65,9,8) occ(72,9,1) occ(77,9,10) occ(112,9,13) occ(125,9,4) occ(145,9,12) occ(15,10,8) occ(28,10,12) occ(33,10,5) occ(55,10,4) occ(98,10,13) occ(114,10,11) occ(123,10,2) occ(127,10,6) occ(5,11,12) occ(17,11,10) occ(21,11,8) occ(29,11,4) occ(35,11,7) occ(53,11,6) occ(67,11,9) occ(74,11,2) occ(75,11,11) occ(147,11,13) occ(7,12,10) occ(13,12,7) occ(23,12,6) occ(37,12,5) occ(43,12,4) occ(47,12,8) occ(69,12,11) occ(73,12,13) occ(80,12,2) occ(92,12,14) occ(96,12,12) occ(11,13,9) occ(27,13,3) occ(41,13,2) occ(45,13,6) occ(51,13,7) occ(76,13,1) occ(82,13,4) occ(86,13,8) occ(90,13,12) occ(149,13,14) occ(9,14,11) occ(25,14,5) occ(39,14,4) occ(49,14,9) occ(71,14,12) occ(78,14,3) occ(84,14,6) occ(88,14,10) occ(94,14,13)
Optimization: -151
Answer: 7
occ(1,10,7) occ(1,1,7) occ(1,8,9) occ(1,13,11) occ(1,7,8) occ(1,9,5) occ(1,4,4) occ(2,6,3) occ(3,10,14) coverage(153) occ(13,1,12) occ(17,1,8) occ(23,1,3) occ(26,1,4) occ(39,1,13) occ(95,1,1) occ(113,1,2) occ(126,1,10) occ(132,1,11) occ(11,2,14) occ(15,2,10) occ(21,2,5) occ(28,2,6) occ(41,2,11) occ(46,2,13) occ(97,2,3) occ(111,2,4) occ(128,2,8) occ(134,2,9) occ(142,2,7) occ(19,3,7) occ(24,3,3) occ(25,3,4) occ(30,3,8) occ(37,3,12) occ(42,3,14) occ(43,3,13) occ(93,3,2) occ(99,3,5) occ(109,3,6) occ(115,3,1) occ(124,3,9) occ(130,3,10) occ(136,3,11) occ(4,4,2) occ(9,4,13) occ(14,4,3) occ(29,4,5) occ(35,4,10) occ(44,4,12) occ(48,4,14) occ(90,4,9) occ(101,4,7) occ(122,4,11) occ(140,4,8) occ(144,4,6) occ(18,5,6) occ(22,5,4) occ(27,5,3) occ(32,5,9) occ(33,5,8) occ(40,5,13) occ(45,5,12) occ(88,5,7) occ(91,5,1) occ(92,5,11) occ(107,5,5) occ(117,5,2) occ(138,5,10) occ(6,6,1) occ(7,6,14) occ(12,6,2) occ(16,6,4) occ(31,6,6) occ(36,6,12) occ(50,6,13) occ(86,6,5) occ(103,6,8) occ(120,6,10) occ(146,6,7) occ(150,6,11) occ(154,6,9) occ(8,7,3) occ(20,7,5) occ(34,7,10) occ(38,7,14) occ(47,7,11) occ(82,7,4) occ(89,7,2) occ(94,7,12) occ(105,7,6) occ(119,7,1) occ(148,7,9) occ(156,7,7) occ(5,8,13) occ(10,8,1) occ(52,8,14) occ(62,8,5) occ(80,8,2) occ(84,8,6) occ(87,8,4) occ(118,8,11) occ(121,8,3) occ(129,8,7) occ(139,8,12) occ(152,8,10) occ(49,9,12) occ(56,9,11) occ(60,9,7) occ(96,9,13) occ(133,9,10) occ(141,9,14) occ(151,9,9) occ(158,9,8) occ(162,9,6) occ(54,10,13) occ(58,10,9) occ(64,10,4) occ(78,10,3) occ(85,10,5) occ(116,10,10) occ(123,10,2) occ(127,10,6) occ(131,10,8) occ(137,10,11) occ(147,10,12) occ(51,11,11) occ(69,11,6) occ(70,11,2) occ(83,11,3) occ(98,11,14) occ(114,11,8) occ(125,11,4) occ(135,11,9) occ(143,11,13) occ(149,11,10) occ(160,11,7) occ(164,11,5) occ(53,12,9) occ(61,12,13) occ(66,12,5) occ(67,12,8) occ(71,12,4) occ(75,12,6) occ(76,12,2) occ(81,12,1) occ(106,12,7) occ(112,12,10) occ(145,12,11) occ(166,12,3) occ(57,13,12) occ(65,13,10) occ(68,13,3) occ(72,13,1) occ(77,13,4) occ(100,13,13) occ(104,13,9) occ(110,13,8) occ(168,13,5) occ(55,14,10) occ(59,14,14) occ(63,14,12) occ(73,14,5) occ(74,14,3) occ(79,14,2) occ(102,14,11) occ(108,14,6) occ(170,14,7)
Optimization: -153
Answer: 8
occ(1,10,7) occ(1,1,7) occ(1,8,9) occ(1,13,11) occ(1,7,8) occ(1,9,5) occ(1,4,4) occ(2,6,3) occ(3,10,14) coverage(165) occ(37,1,2) occ(50,1,14) occ(111,1,5) occ(128,1,13) occ(132,1,9) occ(140,1,3) occ(150,1,4) occ(157,1,12) occ(170,1,10) occ(35,2,4) occ(48,2,12) occ(77,2,9) occ(97,2,3) occ(113,2,7) occ(124,2,10) occ(130,2,11) occ(136,2,6) occ(148,2,2) occ(154,2,5) occ(159,2,14) occ(168,2,8) occ(39,3,1) occ(42,3,10) occ(46,3,14) occ(52,3,13) occ(75,3,7) occ(99,3,5) occ(109,3,6) occ(115,3,9) occ(126,3,12) occ(134,3,8) occ(138,3,4) occ(142,3,2) occ(152,3,3) occ(155,3,11) occ(33,4,5) occ(40,4,8) occ(44,4,12) occ(79,4,10) occ(95,4,2) occ(101,4,3) occ(116,4,14) occ(117,4,7) occ(122,4,11) occ(146,4,1) occ(156,4,6) occ(161,4,13) occ(166,4,9) occ(4,5,1) occ(18,5,4) occ(38,5,6) occ(41,5,2) occ(54,5,14) occ(73,5,8) occ(83,5,9) occ(103,5,5) occ(107,5,7) occ(108,5,13) occ(118,5,12) occ(144,5,3) occ(153,5,10) occ(164,5,11) occ(16,6,2) occ(31,6,4) occ(36,6,8) occ(56,6,12) occ(81,6,11) occ(85,6,7) occ(93,6,1) occ(114,6,13) occ(119,6,6) occ(120,6,10) occ(158,6,5) occ(162,6,9) occ(163,6,14) occ(6,7,2) occ(20,7,5) occ(34,7,10) occ(43,7,1) occ(71,7,9) occ(91,7,3) occ(105,7,6) occ(106,7,14) occ(110,7,12) occ(121,7,4) occ(147,7,13) occ(151,7,11) occ(160,7,7) occ(14,8,1) occ(19,8,10) occ(22,8,3) occ(29,8,5) occ(32,8,8) occ(58,8,11) occ(69,8,7) occ(87,8,6) occ(104,8,12) occ(112,8,14) occ(123,8,2) occ(8,9,1) occ(12,9,3) occ(21,9,8) occ(30,9,6) occ(45,9,2) occ(51,9,7) occ(60,9,13) occ(67,9,9) occ(89,9,4) occ(96,9,11) occ(102,9,10) occ(145,9,14) occ(149,9,12) occ(17,10,11) occ(24,10,2) occ(27,10,4) occ(49,10,5) occ(55,10,6) occ(63,10,8) occ(64,10,12) occ(94,10,9) occ(98,10,13) occ(125,10,3) occ(5,11,12) occ(10,11,2) occ(15,11,9) occ(23,11,7) occ(28,11,5) occ(47,11,3) occ(53,11,8) occ(62,11,14) occ(65,11,10) occ(100,11,11) occ(129,11,6) occ(143,11,13) occ(7,12,14) occ(13,12,11) occ(25,12,5) occ(26,12,3) occ(57,12,7) occ(61,12,9) occ(66,12,13) occ(72,12,8) occ(84,12,2) occ(88,12,6) occ(92,12,10) occ(127,12,4) occ(139,12,12) occ(9,13,12) occ(70,13,10) occ(76,13,7) occ(80,13,3) occ(86,13,4) occ(90,13,8) occ(131,13,5) occ(135,13,9) occ(141,13,14) occ(11,14,10) occ(59,14,8) occ(68,14,12) occ(74,14,9) occ(78,14,5) occ(82,14,1) occ(133,14,7) occ(137,14,11)
Optimization: -165
Answer: 9
occ(1,10,7) occ(1,1,7) occ(1,8,9) occ(1,13,11) occ(1,7,8) occ(1,9,5) occ(1,4,4) occ(2,6,3) occ(3,10,14) coverage(177) occ(23,1,1) occ(29,1,2) occ(35,1,3) occ(46,1,10) occ(50,1,6) occ(112,1,5) occ(132,1,9) occ(142,1,8) occ(152,1,13) occ(157,1,12) occ(163,1,11) occ(25,2,3) occ(33,2,1) occ(37,2,5) occ(42,2,7) occ(48,2,8) occ(52,2,4) occ(130,2,11) occ(140,2,6) occ(144,2,10) occ(148,2,12) occ(155,2,14) occ(161,2,9) occ(165,2,13) occ(21,3,2) occ(27,3,1) occ(31,3,3) occ(39,3,7) occ(44,3,9) occ(110,3,4) occ(114,3,6) occ(122,3,10) occ(128,3,13) occ(134,3,8) occ(150,3,14) occ(154,3,12) occ(159,3,11) occ(40,4,8) occ(41,4,9) occ(54,4,3) occ(103,4,10) occ(107,4,6) occ(108,4,2) occ(118,4,7) occ(124,4,12) occ(138,4,5) occ(146,4,11) occ(153,4,13) occ(167,4,14) occ(4,5,1) occ(19,5,3) occ(38,5,10) occ(58,5,6) occ(64,5,11) occ(78,5,2) occ(105,5,8) occ(109,5,4) occ(116,5,5) occ(120,5,9) occ(126,5,14) occ(136,5,7) occ(149,5,12) occ(156,5,13) occ(15,6,6) occ(34,6,7) occ(43,6,10) occ(56,6,4) occ(62,6,9) occ(74,6,5) occ(101,6,11) occ(106,6,1) occ(111,6,2) occ(151,6,14) occ(169,6,13) occ(175,6,12) occ(6,7,2) occ(17,7,4) occ(36,7,9) occ(60,7,7) occ(66,7,10) occ(70,7,6) occ(76,7,3) occ(80,7,1) occ(97,7,14) occ(147,7,13) occ(158,7,12) occ(171,7,11) occ(13,8,5) occ(24,8,10) occ(32,8,6) occ(45,8,11) occ(61,8,7) occ(68,8,8) occ(72,8,4) occ(99,8,12) occ(104,8,2) occ(113,8,1) occ(117,8,3) occ(173,8,13) occ(176,8,14) occ(5,9,12) occ(8,9,3) occ(11,9,7) occ(26,9,8) occ(82,9,2) occ(95,9,13) occ(102,9,4) occ(119,9,1) occ(145,9,14) occ(160,9,11) occ(164,9,9) occ(9,10,9) occ(10,10,1) occ(22,10,11) occ(30,10,5) occ(47,10,12) occ(59,10,8) occ(63,10,6) occ(75,10,4) occ(115,10,2) occ(121,10,3) occ(174,10,13) occ(7,11,11) occ(20,11,9) occ(28,11,7) occ(65,11,4) occ(73,11,2) occ(77,11,6) occ(84,11,1) occ(93,11,14) occ(100,11,3) occ(123,11,5) occ(143,11,13) occ(162,11,10) occ(166,11,8) occ(170,11,12) occ(12,12,2) occ(49,12,13) occ(57,12,9) occ(83,12,8) occ(86,12,3) occ(89,12,11) occ(90,12,1) occ(94,12,5) occ(127,12,4) occ(131,12,6) occ(139,12,12) occ(168,12,10) occ(172,12,14) occ(14,13,4) occ(18,13,8) occ(53,13,12) occ(67,13,5) occ(71,13,1) occ(79,13,7) occ(85,13,10) occ(91,13,13) occ(92,13,3) occ(98,13,2) occ(125,13,6) occ(135,13,9) occ(141,13,14) occ(16,14,6) occ(51,14,14) occ(55,14,10) occ(69,14,3) occ(81,14,9) occ(87,14,12) occ(88,14,2) occ(96,14,4) occ(129,14,5) occ(133,14,7) occ(137,14,11)
Optimization: -177
Answer: 10
occ(1,10,7) occ(1,1,7) occ(1,8,9) occ(1,13,11) occ(1,7,8) occ(1,9,5) occ(1,4,4) occ(2,6,3) occ(3,10,14) coverage(180) occ(23,1,1) occ(29,1,2) occ(35,1,3) occ(46,1,10) occ(50,1,6) occ(112,1,5) occ(132,1,9) occ(142,1,8) occ(152,1,13) occ(157,1,12) occ(163,1,11) occ(25,2,3) occ(33,2,1) occ(37,2,5) occ(42,2,7) occ(48,2,8) occ(52,2,4) occ(130,2,11) occ(140,2,6) occ(144,2,10) occ(148,2,12) occ(155,2,14) occ(161,2,9) occ(165,2,13) occ(21,3,2) occ(27,3,1) occ(31,3,3) occ(39,3,7) occ(44,3,9) occ(110,3,4) occ(114,3,6) occ(122,3,10) occ(128,3,13) occ(134,3,8) occ(150,3,14) occ(154,3,12) occ(159,3,11) occ(40,4,8) occ(54,4,3) occ(103,4,10) occ(107,4,6) occ(108,4,2) occ(118,4,7) occ(124,4,12) occ(138,4,5) occ(146,4,11) occ(153,4,13) occ(167,4,14) occ(4,5,1) occ(19,5,3) occ(38,5,10) occ(41,5,6) occ(64,5,11) occ(78,5,2) occ(105,5,8) occ(109,5,4) occ(116,5,5) occ(120,5,9) occ(126,5,14) occ(136,5,7) occ(149,5,12) occ(156,5,13) occ(15,6,6) occ(34,6,7) occ(56,6,4) occ(62,6,9) occ(68,6,8) occ(74,6,5) occ(101,6,11) occ(106,6,1) occ(111,6,2) occ(151,6,14) occ(169,6,13) occ(175,6,12) occ(179,6,10) occ(6,7,2) occ(17,7,4) occ(36,7,9) occ(43,7,5) occ(60,7,7) occ(66,7,10) occ(70,7,6) occ(76,7,3) occ(80,7,1) occ(97,7,14) occ(147,7,13) occ(158,7,12) occ(171,7,11) occ(13,8,7) occ(24,8,10) occ(32,8,6) occ(47,8,8) occ(58,8,5) occ(72,8,4) occ(99,8,12) occ(104,8,2) occ(113,8,1) occ(117,8,3) occ(173,8,13) occ(176,8,14) occ(177,8,11) occ(8,9,3) occ(11,9,9) occ(26,9,8) occ(45,9,6) occ(49,9,10) occ(82,9,2) occ(95,9,13) occ(102,9,4) occ(119,9,1) occ(145,9,14) occ(160,9,11) occ(164,9,7) occ(178,9,12) occ(7,10,12) occ(10,10,1) occ(22,10,11) occ(30,10,5) occ(59,10,8) occ(63,10,6) occ(75,10,4) occ(115,10,2) occ(121,10,3) occ(162,10,9) occ(174,10,13) occ(9,11,10) occ(20,11,9) occ(28,11,7) occ(51,11,11) occ(65,11,4) occ(73,11,2) occ(77,11,6) occ(84,11,1) occ(93,11,14) occ(100,11,3) occ(123,11,5) occ(143,11,13) occ(166,11,8) occ(170,11,12) occ(5,12,13) occ(12,12,2) occ(57,12,9) occ(61,12,7) occ(83,12,8) occ(86,12,3) occ(89,12,11) occ(90,12,1) occ(94,12,5) occ(127,12,4) occ(131,12,6) occ(139,12,12) occ(168,12,10) occ(172,12,14) occ(14,13,4) occ(18,13,8) occ(53,13,12) occ(67,13,5) occ(71,13,1) occ(79,13,7) occ(85,13,10) occ(91,13,13) occ(92,13,3) occ(98,13,2) occ(125,13,6) occ(135,13,9) occ(141,13,14) occ(16,14,6) occ(55,14,10) occ(69,14,3) occ(81,14,9) occ(87,14,12) occ(88,14,2) occ(96,14,4) occ(129,14,5) occ(133,14,7) occ(137,14,11)
Optimization: -180
Answer: 11
occ(1,10,7) occ(1,1,7) occ(1,8,9) occ(1,13,11) occ(1,7,8) occ(1,9,5) occ(1,4,4) occ(2,6,3) occ(3,10,14) coverage(182) occ(23,1,1) occ(29,1,2) occ(35,1,3) occ(46,1,10) occ(50,1,6) occ(112,1,5) occ(132,1,9) occ(142,1,8) occ(152,1,13) occ(157,1,12) occ(163,1,11) occ(25,2,3) occ(33,2,1) occ(37,2,5) occ(42,2,7) occ(48,2,8) occ(52,2,4) occ(130,2,11) occ(140,2,6) occ(144,2,10) occ(148,2,12) occ(155,2,14) occ(161,2,9) occ(165,2,13) occ(21,3,2) occ(27,3,1) occ(31,3,3) occ(39,3,7) occ(44,3,9) occ(110,3,4) occ(114,3,6) occ(122,3,10) occ(128,3,13) occ(134,3,8) occ(150,3,14) occ(154,3,12) occ(159,3,11) occ(40,4,8) occ(54,4,3) occ(103,4,10) occ(107,4,6) occ(108,4,2) occ(118,4,7) occ(124,4,12) occ(138,4,5) occ(146,4,11) occ(153,4,13) occ(167,4,14) occ(181,4,9) occ(4,5,1) occ(19,5,3) occ(38,5,10) occ(41,5,6) occ(64,5,11) occ(78,5,2) occ(105,5,8) occ(109,5,4) occ(116,5,5) occ(120,5,9) occ(126,5,14) occ(136,5,7) occ(149,5,12) occ(156,5,13) occ(15,6,6) occ(34,6,7) occ(56,6,4) occ(62,6,9) occ(68,6,8) occ(74,6,5) occ(101,6,11) occ(106,6,1) occ(111,6,2) occ(151,6,14) occ(169,6,13) occ(175,6,12) occ(179,6,10) occ(6,7,2) occ(17,7,4) occ(36,7,9) occ(43,7,5) occ(60,7,7) occ(66,7,10) occ(70,7,6) occ(76,7,3) occ(80,7,1) occ(97,7,14) occ(147,7,13) occ(158,7,12) occ(171,7,11) occ(13,8,7) occ(24,8,10) occ(32,8,6) occ(47,8,8) occ(58,8,5) occ(72,8,4) occ(99,8,12) occ(104,8,2) occ(113,8,1) occ(117,8,3) occ(173,8,13) occ(176,8,14) occ(177,8,11) occ(8,9,3) occ(11,9,9) occ(26,9,8) occ(45,9,6) occ(49,9,10) occ(82,9,2) occ(95,9,13) occ(102,9,4) occ(119,9,1) occ(145,9,14) occ(160,9,11) occ(164,9,7) occ(178,9,12) occ(7,10,12) occ(10,10,1) occ(22,10,11) occ(30,10,5) occ(59,10,8) occ(63,10,6) occ(75,10,4) occ(115,10,2) occ(121,10,3) occ(162,10,9) occ(174,10,13) occ(180,10,10) occ(9,11,10) occ(20,11,9) occ(28,11,7) occ(51,11,11) occ(65,11,4) occ(73,11,2) occ(77,11,6) occ(84,11,1) occ(93,11,14) occ(100,11,3) occ(123,11,5) occ(143,11,13) occ(166,11,8) occ(170,11,12) occ(5,12,13) occ(12,12,2) occ(57,12,9) occ(61,12,7) occ(83,12,8) occ(86,12,3) occ(89,12,11) occ(90,12,1) occ(94,12,5) occ(127,12,4) occ(131,12,6) occ(139,12,12) occ(168,12,10) occ(172,12,14) occ(14,13,4) occ(18,13,8) occ(53,13,12) occ(67,13,5) occ(71,13,1) occ(79,13,7) occ(85,13,10) occ(91,13,13) occ(92,13,3) occ(98,13,2) occ(125,13,6) occ(135,13,9) occ(141,13,14) occ(16,14,6) occ(55,14,10) occ(69,14,3) occ(81,14,9) occ(87,14,12) occ(88,14,2) occ(96,14,4) occ(129,14,5) occ(133,14,7) occ(137,14,11)
Optimization: -182
Answer: 12
occ(1,10,7) occ(1,1,7) occ(1,8,9) occ(1,13,11) occ(1,7,8) occ(1,9,5) occ(1,4,4) occ(2,6,3) occ(3,10,14) coverage(183) occ(23,1,1) occ(29,1,2) occ(35,1,3) occ(46,1,10) occ(50,1,6) occ(112,1,5) occ(132,1,9) occ(142,1,8) occ(152,1,13) occ(157,1,12) occ(163,1,11) occ(25,2,3) occ(33,2,1) occ(37,2,5) occ(42,2,7) occ(48,2,8) occ(52,2,4) occ(130,2,11) occ(140,2,6) occ(144,2,10) occ(148,2,12) occ(155,2,14) occ(161,2,9) occ(165,2,13) occ(21,3,2) occ(27,3,1) occ(31,3,3) occ(39,3,7) occ(44,3,9) occ(110,3,4) occ(114,3,6) occ(122,3,10) occ(128,3,13) occ(134,3,8) occ(150,3,14) occ(154,3,12) occ(159,3,11) occ(40,4,8) occ(54,4,3) occ(103,4,10) occ(107,4,6) occ(108,4,2) occ(118,4,7) occ(124,4,12) occ(138,4,5) occ(146,4,11) occ(153,4,13) occ(167,4,14) occ(181,4,9) occ(4,5,1) occ(19,5,3) occ(38,5,10) occ(41,5,6) occ(64,5,11) occ(78,5,2) occ(105,5,8) occ(109,5,4) occ(116,5,5) occ(120,5,9) occ(126,5,14) occ(136,5,7) occ(149,5,12) occ(156,5,13) occ(15,6,6) occ(34,6,7) occ(56,6,4) occ(62,6,9) occ(68,6,8) occ(74,6,5) occ(101,6,11) occ(106,6,1) occ(111,6,2) occ(151,6,14) occ(169,6,13) occ(175,6,12) occ(179,6,10) occ(6,7,2) occ(17,7,4) occ(36,7,9) occ(43,7,5) occ(60,7,7) occ(66,7,10) occ(70,7,6) occ(76,7,3) occ(80,7,1) occ(147,7,13) occ(158,7,12) occ(171,7,11) occ(182,7,14) occ(13,8,7) occ(24,8,10) occ(32,8,6) occ(47,8,8) occ(58,8,5) occ(72,8,4) occ(95,8,14) occ(99,8,12) occ(104,8,2) occ(113,8,1) occ(117,8,3) occ(173,8,13) occ(177,8,11) occ(8,9,3) occ(11,9,9) occ(26,9,8) occ(45,9,6) occ(49,9,10) occ(82,9,2) occ(93,9,12) occ(102,9,4) occ(119,9,1) occ(145,9,14) occ(160,9,11) occ(164,9,7) occ(180,9,13) occ(7,10,12) occ(10,10,1) occ(22,10,11) occ(30,10,5) occ(59,10,8) occ(63,10,6) occ(75,10,4) occ(91,10,10) occ(97,10,13) occ(115,10,2) occ(121,10,3) occ(162,10,9) occ(9,11,10) occ(20,11,9) occ(28,11,7) occ(51,11,11) occ(65,11,4) occ(73,11,2) occ(77,11,6) occ(84,11,1) occ(89,11,12) occ(100,11,3) occ(123,11,5) occ(143,11,13) occ(166,11,8) occ(178,11,14) occ(5,12,13) occ(12,12,2) occ(57,12,9) occ(61,12,7) occ(79,12,8) occ(83,12,12) occ(86,12,3) occ(87,12,14) occ(90,12,1) occ(94,12,5) occ(127,12,4) occ(131,12,6) occ(137,12,11) occ(172,12,10) occ(14,13,4) occ(18,13,8) occ(53,13,12) occ(67,13,5) occ(71,13,1) occ(81,13,10) occ(92,13,3) occ(98,13,2) occ(125,13,6) occ(135,13,9) occ(141,13,14) occ(168,13,7) occ(176,13,13) occ(16,14,6) occ(55,14,10) occ(69,14,3) occ(85,14,13) occ(88,14,2) occ(96,14,4) occ(129,14,5) occ(133,14,7) occ(139,14,12) occ(170,14,9) occ(174,14,11)
Optimization: -183
Answer: 13
occ(1,10,7) occ(1,1,7) occ(1,8,9) occ(1,13,11) occ(1,7,8) occ(1,9,5) occ(1,4,4) occ(2,6,3) occ(3,10,14) coverage(184) occ(33,1,10) occ(37,1,6) occ(43,1,9) occ(47,1,11) occ(53,1,12) occ(77,1,14) occ(80,1,3) occ(90,1,2) occ(135,1,5) occ(139,1,1) occ(35,2,8) occ(41,2,7) occ(51,2,14) occ(55,2,10) occ(78,2,5) occ(79,2,12) occ(84,2,2) occ(88,2,4) occ(113,2,9) occ(117,2,11) occ(127,2,6) occ(137,2,3) occ(153,2,1) occ(31,3,11) occ(39,3,5) occ(45,3,10) occ(49,3,12) occ(69,3,14) occ(75,3,13) occ(76,3,7) occ(82,3,4) occ(92,3,1) occ(119,3,9) occ(125,3,8) occ(133,3,6) occ(141,3,2) occ(151,3,3) occ(57,4,9) occ(71,4,12) occ(74,4,5) occ(81,4,13) occ(86,4,3) occ(91,4,6) occ(111,4,8) occ(115,4,10) occ(121,4,11) occ(129,4,7) occ(149,4,1) occ(155,4,2) occ(14,5,6) occ(29,5,12) occ(67,5,13) occ(68,5,11) occ(72,5,7) occ(73,5,14) occ(85,5,10) occ(89,5,8) occ(93,5,4) occ(94,5,2) occ(123,5,9) occ(131,5,5) occ(143,5,1) occ(147,5,3) occ(16,6,4) occ(20,6,8) occ(46,6,13) occ(59,6,10) occ(65,6,11) occ(70,6,9) occ(83,6,12) occ(95,6,2) occ(104,6,6) occ(109,6,7) occ(110,6,5) occ(157,6,1) occ(4,7,5) occ(12,7,7) occ(18,7,6) occ(27,7,13) occ(44,7,11) occ(61,7,12) occ(66,7,10) occ(87,7,9) occ(96,7,1) occ(100,7,3) occ(106,7,4) occ(145,7,2) occ(158,7,14) occ(22,8,7) occ(42,8,13) occ(48,8,14) occ(63,8,10) occ(97,8,1) occ(102,8,5) occ(107,8,8) occ(108,8,6) occ(112,8,4) occ(154,8,11) occ(159,8,2) occ(160,8,12) occ(165,8,3) occ(5,9,12) occ(6,9,4) occ(10,9,8) occ(21,9,10) occ(25,9,14) occ(40,9,11) occ(64,9,9) occ(98,9,2) occ(99,9,3) occ(103,9,7) occ(114,9,6) occ(156,9,13) occ(163,9,1) occ(8,10,6) occ(23,10,12) occ(24,10,8) occ(50,10,13) occ(101,10,5) occ(105,10,9) occ(124,10,4) occ(152,10,10) occ(161,10,3) occ(162,10,11) occ(167,10,2) occ(177,10,1) occ(7,11,11) occ(19,11,9) occ(26,11,6) occ(38,11,10) occ(54,11,12) occ(62,11,8) occ(116,11,5) occ(126,11,2) occ(134,11,4) occ(148,11,7) occ(164,11,13) occ(179,11,3) occ(182,11,14) occ(183,11,1) occ(13,12,7) occ(28,12,8) occ(36,12,12) occ(52,12,14) occ(56,12,10) occ(122,12,3) occ(136,12,6) occ(140,12,4) occ(146,12,5) occ(150,12,9) occ(169,12,1) occ(170,12,13) occ(175,12,2) occ(178,12,11) occ(9,13,10) occ(17,13,8) occ(32,13,9) occ(60,13,7) occ(118,13,4) occ(128,13,1) occ(132,13,5) occ(142,13,6) occ(166,13,14) occ(171,13,3) occ(174,13,12) occ(180,13,13) occ(181,13,2) occ(11,14,8) occ(15,14,6) occ(30,14,7) occ(34,14,11) occ(58,14,9) occ(120,14,2) occ(130,14,3) occ(138,14,5) occ(144,14,4) occ(168,14,12) occ(172,14,14) occ(173,14,1) occ(176,14,10)
Optimization: -184
*** Info : (clingo): INTERRUPTED by signal!
SATISFIABLE

TIME LIMIT   : 1
Models       : 13+
  Optimum    : unknown
Optimization : -184
Calls        : 1
Time         : 300.000s (Solving: 285.54s 1st Model: 0.01s Unsat: 0.00s)
CPU Time     : 299.998s
